17	4	3
14	13	13	12	31	28	17	
0	0	0	0	0	10	7	6	10	7	9	3	2	3	4
6	0	3	0	0	5	5	8	1	10	7	2	12	17
4	0	3	0	0	4	4	2	10	1	9	2	6	10
9	0	0	7	0	7	10	10	2	10	3	3	5	7	17
5	1	0	0	0	4	8	5	6	8	8	2	14	17
250	0	4	0	0	6	7	4	2	7	1	2	8	17
250	0	3	0	0	10	1	6	8	1	5	3	9	11	17
25	6	0	0	0	4	5	8	5	4	8	1	17
25	10	0	0	0	4	10	8	3	2	7	2	13	17
175	9	0	0	0	6	6	5	1	1	3	1	15
50	0	0	0	2	8	6	9	2	7	5	1	17
175	0	7	0	0	3	7	6	8	4	7	1	17
6	3	0	0	0	2	8	1	9	2	4	1	17
1	8	0	0	0	7	5	4	4	8	6	2	16	17
10	0	0	0	3	1	4	1	6	4	1	1	17
9	0	0	0	7	8	2	7	6	3	4	1	17
0	0	0	0	0	1	5	10	6	2	4	0
